400 1583 
1 5 1
1 6 1
1 7 1
1 10 1
1 16 1
1 18 1
1 29 1
1 36 1
1 41 1
1 63 1
1 77 1
1 85 1
1 90 1
1 113 1
1 137 1
1 139 1
1 160 1
1 174 1
1 184 1
1 189 1
1 198 1
1 209 1
1 216 1
1 226 1
1 236 1
1 252 1
1 272 1
1 283 1
1 286 1
1 298 1
1 325 1
1 328 1
1 347 1
1 385 1
1 386 1
2 5 1
2 6 1
2 7 1
2 8 1
2 9 1
2 10 1
2 11 1
2 12 1
2 14 1
2 17 1
2 18 1
2 19 1
2 21 1
2 24 1
2 27 1
2 31 1
2 32 1
2 34 1
2 36 1
2 38 1
2 42 1
2 44 1
2 47 1
2 49 1
2 51 1
2 57 1
2 62 1
2 64 1
2 70 1
2 79 1
2 86 1
2 88 1
2 94 1
2 102 1
2 105 1
2 106 1
2 110 1
2 113 1
2 152 1
2 157 1
2 184 1
2 185 1
2 198 1
2 243 1
2 246 1
2 262 1
2 274 1
2 284 1
2 294 1
2 324 1
2 326 1
2 333 1
2 344 1
2 358 1
2 363 1
2 370 1
2 384 1
2 387 1
2 389 1
2 394 1
3 5 1
3 9 1
3 23 1
3 28 1
3 52 1
3 79 1
3 89 1
3 177 1
3 293 1
4 5 1
4 6 1
4 7 1
4 8 1
4 13 1
4 15 1
4 25 1
4 27 1
4 67 1
4 72 1
4 96 1
4 107 1
4 109 1
4 125 1
4 167 1
4 204 1
4 224 1
4 287 1
4 373 1
4 379 1
5 6 1
5 7 1
5 8 1
5 10 1
5 12 1
5 14 1
5 16 1
5 17 1
5 18 1
5 22 1
5 23 1
5 24 1
5 27 1
5 30 1
5 35 1
5 38 1
5 39 1
5 47 1
5 48 1
5 49 1
5 50 1
5 53 1
5 57 1
5 64 1
5 65 1
5 69 1
5 81 1
5 83 1
5 87 1
5 89 1
5 95 1
5 97 1
5 98 1
5 103 1
5 119 1
5 137 1
5 138 1
5 145 1
5 147 1
5 149 1
5 150 1
5 165 1
5 182 1
5 186 1
5 191 1
5 197 1
5 198 1
5 201 1
5 202 1
5 205 1
5 209 1
5 220 1
5 221 1
5 230 1
5 236 1
5 242 1
5 245 1
5 264 1
5 272 1
5 273 1
5 275 1
5 284 1
5 295 1
5 304 1
5 308 1
5 312 1
5 318 1
5 319 1
5 330 1
5 331 1
5 334 1
5 358 1
5 360 1
5 375 1
6 9 1
6 10 1
6 13 1
6 19 1
6 22 1
6 24 1
6 25 1
6 26 1
6 32 1
6 33 1
6 35 1
6 38 1
6 42 1
6 48 1
6 59 1
6 65 1
6 70 1
6 76 1
6 82 1
6 88 1
6 91 1
6 93 1
6 95 1
6 101 1
6 119 1
6 124 1
6 130 1
6 134 1
6 136 1
6 138 1
6 146 1
6 148 1
6 149 1
6 155 1
6 161 1
6 169 1
6 172 1
6 175 1
6 177 1
6 178 1
6 182 1
6 191 1
6 192 1
6 197 1
6 199 1
6 214 1
6 224 1
6 229 1
6 232 1
6 243 1
6 244 1
6 251 1
6 256 1
6 265 1
6 281 1
6 309 1
6 314 1
6 324 1
6 326 1
6 327 1
6 335 1
6 343 1
6 345 1
6 350 1
6 367 1
6 382 1
7 8 1
7 11 1
7 15 1
7 21 1
7 22 1
7 23 1
7 42 1
7 57 1
7 69 1
7 92 1
7 118 1
7 189 1
7 190 1
7 195 1
7 206 1
7 210 1
7 216 1
7 223 1
7 251 1
7 253 1
7 293 1
7 328 1
7 344 1
7 354 1
7 363 1
7 395 1
8 11 1
8 25 1
8 28 1
8 38 1
8 45 1
8 64 1
8 65 1
8 97 1
8 99 1
8 100 1
8 103 1
8 139 1
8 158 1
8 159 1
8 182 1
8 184 1
8 203 1
8 234 1
8 238 1
8 243 1
8 275 1
8 292 1
8 400 1
9 14 1
9 15 1
9 17 1
9 20 1
9 27 1
9 29 1
9 53 1
9 60 1
9 78 1
9 85 1
9 104 1
9 108 1
9 111 1
9 115 1
9 118 1
9 132 1
9 179 1
9 190 1
9 234 1
9 270 1
9 290 1
9 332 1
10 11 1
10 12 1
10 13 1
10 30 1
10 31 1
10 35 1
10 44 1
10 46 1
10 74 1
10 76 1
10 84 1
10 86 1
10 93 1
10 122 1
10 149 1
10 156 1
10 162 1
10 164 1
10 170 1
10 183 1
10 213 1
10 240 1
10 253 1
10 265 1
10 281 1
10 283 1
10 288 1
10 300 1
10 322 1
10 324 1
10 329 1
10 331 1
10 340 1
10 350 1
10 375 1
11 12 1
11 14 1
11 15 1
11 17 1
11 18 1
11 20 1
11 24 1
11 28 1
11 36 1
11 37 1
11 46 1
11 52 1
11 55 1
11 61 1
11 63 1
11 64 1
11 68 1
11 82 1
11 84 1
11 91 1
11 92 1
11 93 1
11 99 1
11 107 1
11 109 1
11 138 1
11 163 1
11 165 1
11 188 1
11 202 1
11 206 1
11 235 1
11 271 1
11 277 1
11 287 1
11 296 1
11 307 1
11 325 1
11 372 1
11 386 1
11 387 1
11 391 1
12 13 1
12 16 1
12 21 1
12 31 1
12 40 1
12 45 1
12 56 1
12 58 1
12 68 1
12 81 1
12 82 1
12 107 1
12 108 1
12 117 1
12 146 1
12 170 1
12 185 1
12 186 1
12 193 1
12 204 1
12 217 1
12 226 1
12 239 1
12 274 1
12 278 1
12 317 1
12 323 1
12 357 1
12 399 1
13 21 1
13 23 1
13 26 1
13 50 1
13 56 1
13 61 1
13 73 1
13 100 1
13 126 1
13 127 1
13 130 1
13 149 1
13 222 1
13 239 1
13 332 1
13 338 1
13 392 1
14 19 1
14 20 1
14 33 1
14 36 1
14 39 1
14 51 1
14 63 1
14 71 1
14 73 1
14 74 1
14 77 1
14 84 1
14 85 1
14 94 1
14 113 1
14 128 1
14 129 1
14 166 1
14 179 1
14 215 1
14 237 1
14 278 1
14 315 1
14 342 1
14 346 1
14 371 1
14 395 1
15 16 1
15 30 1
15 34 1
15 43 1
15 47 1
15 61 1
15 84 1
15 90 1
15 131 1
15 155 1
15 168 1
15 173 1
15 215 1
15 225 1
15 280 1
15 284 1
15 334 1
15 399 1
16 54 1
16 58 1
16 101 1
17 19 1
17 41 1
17 71 1
17 131 1
17 207 1
17 221 1
17 247 1
17 301 1
17 356 1
18 25 1
18 32 1
18 37 1
18 39 1
18 41 1
18 48 1
18 54 1
18 78 1
18 87 1
18 90 1
18 105 1
18 144 1
18 148 1
18 175 1
18 216 1
18 227 1
18 239 1
18 272 1
18 276 1
18 285 1
18 299 1
18 303 1
18 353 1
18 355 1
18 372 1
18 389 1
19 20 1
19 22 1
19 33 1
19 41 1
19 43 1
19 44 1
19 50 1
19 52 1
19 57 1
19 76 1
19 80 1
19 83 1
19 86 1
19 95 1
19 108 1
19 116 1
19 117 1
19 128 1
19 129 1
19 133 1
19 147 1
19 153 1
19 154 1
19 169 1
19 173 1
19 179 1
19 188 1
19 217 1
19 230 1
19 241 1
19 252 1
19 263 1
19 264 1
19 286 1
19 302 1
19 305 1
19 344 1
19 351 1
19 374 1
19 378 1
19 397 1
20 29 1
20 37 1
20 40 1
20 45 1
20 58 1
20 73 1
20 74 1
20 95 1
20 104 1
20 141 1
20 160 1
20 203 1
20 219 1
20 272 1
20 323 1
20 333 1
20 378 1
20 384 1
20 394 1
21 67 1
21 144 1
21 177 1
21 202 1
22 28 1
22 29 1
22 31 1
22 32 1
22 34 1
22 47 1
22 55 1
22 56 1
22 88 1
22 92 1
22 104 1
22 109 1
22 120 1
22 148 1
22 199 1
22 222 1
22 230 1
22 233 1
22 263 1
22 282 1
22 319 1
22 382 1
22 387 1
22 390 1
23 40 1
23 66 1
23 114 1
23 136 1
23 143 1
23 151 1
23 214 1
23 244 1
23 294 1
24 26 1
24 43 1
24 53 1
24 55 1
24 66 1
24 86 1
24 96 1
24 123 1
24 171 1
24 201 1
24 266 1
24 336 1
24 386 1
25 26 1
25 65 1
25 99 1
25 111 1
25 114 1
25 130 1
25 132 1
25 151 1
25 159 1
25 168 1
25 182 1
25 225 1
25 234 1
25 284 1
25 311 1
25 323 1
26 80 1
26 118 1
26 169 1
26 172 1
26 173 1
26 183 1
26 186 1
26 255 1
26 281 1
27 34 1
27 35 1
27 72 1
27 121 1
27 186 1
27 223 1
27 291 1
27 324 1
27 362 1
28 33 1
28 82 1
28 133 1
28 352 1
28 366 1
29 30 1
29 37 1
29 120 1
29 129 1
29 241 1
29 338 1
30 39 1
30 46 1
30 54 1
30 55 1
30 61 1
30 67 1
30 137 1
30 139 1
30 150 1
30 190 1
30 219 1
30 236 1
30 264 1
30 301 1
30 311 1
30 316 1
30 320 1
30 337 1
30 369 1
30 374 1
30 381 1
31 59 1
31 69 1
31 110 1
31 125 1
31 160 1
31 164 1
31 185 1
31 193 1
31 293 1
31 309 1
32 42 1
32 66 1
32 94 1
32 135 1
32 148 1
32 162 1
32 178 1
32 292 1
32 326 1
33 44 1
33 51 1
33 100 1
33 115 1
33 155 1
33 166 1
33 188 1
33 232 1
33 247 1
33 266 1
33 310 1
33 314 1
33 323 1
33 329 1
33 346 1
33 349 1
33 394 1
34 75 1
34 116 1
34 121 1
34 152 1
34 157 1
34 262 1
34 281 1
35 98 1
36 72 1
36 104 1
36 105 1
36 110 1
36 115 1
36 144 1
36 260 1
36 339 1
36 373 1
36 399 1
37 71 1
37 137 1
37 175 1
37 212 1
37 228 1
37 344 1
37 353 1
37 395 1
38 45 1
38 71 1
38 106 1
38 133 1
38 134 1
38 156 1
38 198 1
38 259 1
38 260 1
38 280 1
39 40 1
39 43 1
39 48 1
39 51 1
39 59 1
39 63 1
39 105 1
39 166 1
39 268 1
39 375 1
39 398 1
40 78 1
40 97 1
40 218 1
41 59 1
41 90 1
41 102 1
41 112 1
41 176 1
41 313 1
41 321 1
41 325 1
41 361 1
42 50 1
42 53 1
42 60 1
42 102 1
42 153 1
42 167 1
42 251 1
42 274 1
43 46 1
43 49 1
43 67 1
43 68 1
43 119 1
43 125 1
43 173 1
43 181 1
43 217 1
43 227 1
43 245 1
43 257 1
43 258 1
43 273 1
43 282 1
43 313 1
43 321 1
43 367 1
44 73 1
44 320 1
45 91 1
45 97 1
45 126 1
45 180 1
45 210 1
45 243 1
45 345 1
46 49 1
46 83 1
46 89 1
46 102 1
46 143 1
46 168 1
46 171 1
46 199 1
46 227 1
46 300 1
46 305 1
46 398 1
47 52 1
47 112 1
47 164 1
47 312 1
47 339 1
47 367 1
47 377 1
48 68 1
48 83 1
48 87 1
48 122 1
48 142 1
48 211 1
48 295 1
48 376 1
49 58 1
49 62 1
49 354 1
49 390 1
50 60 1
50 140 1
50 196 1
51 54 1
51 74 1
51 76 1
51 93 1
51 123 1
51 151 1
51 224 1
51 288 1
51 357 1
51 364 1
51 365 1
52 56 1
52 70 1
52 78 1
52 150 1
52 153 1
52 174 1
52 235 1
52 292 1
53 110 1
53 119 1
53 132 1
53 138 1
53 183 1
53 189 1
53 296 1
53 328 1
53 364 1
53 379 1
53 381 1
54 60 1
54 66 1
54 181 1
54 208 1
54 275 1
54 374 1
55 206 1
55 227 1
55 230 1
55 267 1
55 398 1
56 62 1
56 103 1
56 134 1
56 150 1
56 195 1
56 235 1
56 242 1
56 245 1
56 277 1
56 312 1
56 316 1
56 368 1
57 70 1
57 72 1
57 101 1
57 162 1
57 166 1
57 167 1
57 181 1
57 361 1
57 382 1
58 94 1
58 258 1
58 259 1
58 267 1
58 343 1
58 365 1
59 62 1
59 77 1
59 79 1
59 111 1
59 121 1
59 124 1
59 125 1
59 127 1
59 194 1
59 207 1
59 250 1
59 285 1
59 297 1
59 306 1
59 322 1
59 369 1
60 69 1
60 75 1
60 96 1
60 98 1
60 118 1
60 121 1
60 140 1
60 215 1
60 256 1
60 340 1
61 91 1
61 253 1
62 75 1
62 88 1
62 116 1
62 126 1
62 142 1
62 237 1
62 305 1
62 369 1
63 98 1
63 337 1
64 85 1
64 117 1
64 226 1
64 297 1
64 388 1
65 130 1
65 136 1
65 192 1
65 197 1
65 252 1
65 388 1
66 92 1
66 176 1
66 187 1
66 238 1
66 261 1
66 271 1
66 348 1
67 153 1
68 75 1
68 77 1
68 80 1
68 117 1
68 123 1
68 124 1
68 132 1
68 181 1
68 199 1
68 213 1
68 233 1
68 236 1
68 261 1
68 276 1
68 355 1
68 360 1
69 81 1
69 154 1
69 248 1
69 296 1
69 299 1
69 309 1
69 381 1
70 113 1
70 356 1
70 364 1
71 109 1
71 120 1
71 129 1
71 141 1
71 165 1
71 178 1
71 204 1
71 381 1
71 391 1
72 200 1
72 211 1
72 212 1
72 260 1
72 345 1
73 128 1
73 263 1
73 303 1
73 400 1
74 163 1
74 196 1
74 219 1
74 240 1
74 360 1
75 101 1
75 154 1
75 183 1
75 229 1
75 307 1
75 375 1
76 79 1
76 100 1
76 157 1
76 180 1
76 254 1
76 259 1
76 289 1
76 380 1
77 80 1
77 89 1
77 111 1
77 147 1
77 161 1
77 213 1
77 217 1
77 242 1
77 389 1
78 81 1
79 220 1
79 248 1
79 261 1
80 136 1
80 200 1
80 218 1
80 341 1
80 368 1
81 154 1
81 165 1
81 346 1
82 131 1
82 145 1
82 397 1
83 108 1
84 177 1
84 223 1
84 275 1
84 336 1
85 87 1
85 122 1
85 232 1
85 260 1
85 295 1
86 96 1
86 116 1
86 144 1
86 187 1
86 235 1
86 250 1
87 290 1
89 106 1
89 140 1
89 143 1
89 158 1
89 168 1
89 190 1
89 218 1
89 271 1
89 305 1
90 128 1
90 215 1
90 295 1
90 355 1
91 124 1
91 161 1
91 164 1
91 196 1
91 221 1
91 247 1
91 266 1
91 300 1
91 372 1
92 158 1
92 169 1
92 205 1
92 308 1
93 131 1
93 229 1
93 319 1
94 115 1
94 340 1
95 175 1
95 226 1
95 229 1
95 370 1
96 99 1
96 107 1
96 122 1
96 192 1
96 267 1
96 310 1
96 383 1
97 248 1
97 254 1
97 302 1
98 106 1
98 112 1
98 127 1
98 135 1
98 180 1
98 200 1
98 207 1
98 246 1
98 325 1
99 114 1
99 321 1
99 365 1
100 257 1
101 274 1
102 103 1
102 112 1
102 120 1
102 171 1
102 187 1
102 197 1
102 205 1
102 269 1
102 315 1
102 376 1
103 152 1
103 187 1
103 240 1
103 356 1
103 382 1
105 163 1
105 193 1
105 194 1
105 219 1
105 231 1
105 385 1
106 174 1
106 329 1
107 241 1
108 126 1
108 340 1
108 361 1
109 282 1
109 331 1
110 176 1
111 265 1
111 320 1
111 327 1
112 134 1
112 269 1
112 358 1
112 377 1
112 379 1
113 114 1
113 297 1
113 359 1
113 377 1
114 141 1
114 195 1
114 263 1
114 287 1
114 335 1
114 371 1
115 127 1
115 145 1
115 228 1
115 234 1
116 145 1
116 185 1
116 191 1
116 211 1
117 123 1
117 135 1
117 152 1
117 159 1
117 180 1
117 194 1
117 223 1
117 225 1
117 315 1
117 379 1
118 211 1
118 399 1
119 139 1
119 308 1
120 151 1
120 191 1
120 289 1
120 309 1
120 320 1
120 389 1
121 156 1
121 159 1
121 224 1
121 282 1
121 304 1
121 384 1
122 133 1
122 300 1
122 350 1
123 147 1
123 306 1
124 172 1
125 141 1
125 142 1
125 280 1
125 294 1
125 336 1
125 380 1
126 135 1
126 140 1
126 143 1
126 146 1
126 208 1
126 248 1
126 268 1
126 278 1
126 318 1
126 341 1
126 351 1
126 383 1
126 391 1
128 301 1
128 348 1
128 397 1
129 155 1
129 277 1
130 249 1
130 376 1
131 156 1
131 221 1
131 255 1
131 360 1
133 146 1
133 162 1
133 290 1
133 314 1
133 347 1
133 393 1
134 142 1
134 179 1
135 390 1
136 359 1
137 231 1
138 311 1
138 355 1
141 170 1
141 310 1
142 239 1
142 240 1
143 167 1
143 212 1
143 249 1
143 258 1
143 294 1
143 307 1
143 359 1
144 161 1
144 250 1
144 285 1
145 157 1
145 203 1
146 222 1
146 255 1
146 317 1
147 171 1
147 201 1
147 348 1
148 158 1
148 194 1
148 238 1
149 170 1
149 220 1
149 241 1
150 393 1
151 351 1
152 163 1
152 388 1
152 392 1
153 174 1
153 213 1
153 253 1
153 276 1
154 172 1
154 176 1
154 373 1
154 378 1
155 204 1
156 254 1
156 301 1
157 160 1
158 250 1
158 283 1
158 374 1
159 242 1
159 252 1
159 286 1
159 287 1
159 338 1
159 354 1
159 386 1
161 178 1
161 299 1
162 279 1
162 291 1
162 318 1
162 333 1
163 368 1
164 247 1
164 280 1
164 336 1
165 201 1
165 246 1
165 268 1
166 188 1
166 193 1
166 313 1
167 270 1
167 357 1
167 359 1
169 238 1
169 400 1
171 210 1
171 212 1
171 249 1
172 196 1
172 276 1
172 303 1
172 357 1
172 400 1
173 200 1
173 273 1
174 298 1
174 308 1
174 362 1
175 296 1
176 209 1
176 311 1
177 202 1
177 244 1
177 271 1
177 392 1
178 205 1
178 353 1
179 195 1
179 232 1
179 262 1
179 265 1
179 291 1
179 299 1
179 390 1
180 203 1
180 207 1
180 277 1
180 339 1
180 366 1
180 387 1
181 208 1
181 267 1
182 184 1
182 218 1
183 292 1
183 327 1
183 398 1
184 237 1
184 312 1
185 189 1
185 192 1
185 222 1
185 353 1
185 362 1
186 288 1
189 216 1
192 209 1
192 214 1
192 233 1
192 245 1
192 293 1
192 328 1
192 368 1
192 380 1
194 206 1
194 220 1
195 270 1
196 214 1
196 228 1
196 256 1
197 297 1
198 304 1
198 316 1
198 322 1
198 393 1
199 255 1
199 318 1
199 372 1
200 307 1
201 246 1
201 279 1
201 373 1
202 208 1
202 210 1
202 233 1
203 225 1
203 269 1
203 285 1
203 369 1
204 231 1
204 306 1
204 334 1
204 363 1
205 315 1
205 317 1
205 350 1
208 349 1
208 361 1
209 304 1
209 316 1
210 237 1
210 283 1
211 302 1
212 228 1
215 264 1
217 291 1
217 332 1
217 352 1
218 268 1
218 370 1
218 377 1
219 266 1
221 244 1
225 262 1
226 341 1
226 378 1
227 254 1
227 290 1
227 370 1
229 231 1
232 306 1
232 327 1
232 331 1
232 349 1
233 261 1
233 396 1
234 258 1
234 298 1
235 335 1
236 319 1
236 362 1
236 383 1
242 249 1
242 256 1
242 343 1
243 270 1
244 330 1
244 371 1
244 383 1
245 251 1
245 257 1
245 273 1
246 313 1
246 338 1
247 337 1
248 278 1
248 347 1
249 269 1
250 289 1
250 345 1
250 365 1
252 354 1
252 356 1
254 257 1
256 259 1
256 289 1
256 343 1
258 395 1
261 286 1
261 346 1
261 351 1
263 303 1
263 321 1
263 335 1
263 363 1
264 342 1
267 384 1
269 298 1
270 352 1
271 348 1
272 326 1
273 367 1
274 279 1
276 288 1
278 279 1
278 337 1
279 334 1
281 396 1
284 341 1
286 349 1
287 342 1
290 397 1
291 302 1
291 317 1
292 314 1
293 347 1
297 339 1
297 364 1
298 310 1
298 392 1
300 329 1
309 391 1
311 333 1
311 352 1
314 330 1
314 366 1
314 385 1
315 393 1
320 322 1
322 330 1
322 332 1
322 371 1
330 342 1
331 376 1
331 396 1
334 385 1
339 366 1
339 388 1
349 380 1
351 396 1
353 358 1
389 394 1
